(declare-const X String)
; Host\u{3A}\s+www\u{2E}yoogee\u{2E}com
(assert (not (str.in_re X (re.++ (str.to_re "Host:") (re.+ (re.union (str.to_re " ") (str.to_re "\u{9}") (str.to_re "\u{a}") (str.to_re "\u{c}") (str.to_re "\u{d}"))) (str.to_re "www.yoogee.com\u{13}\u{a}")))))
; \u{5C}home\/lordofsearchToolbar\u{22}StarLogger\u{22}
(assert (str.in_re X (str.to_re "\u{5c}home/lordofsearchToolbar\u{22}StarLogger\u{22}\u{a}")))
; /filename=[^\n]*\u{2e}bak/i
(assert (not (str.in_re X (re.++ (str.to_re "/filename=") (re.* (re.comp (str.to_re "\u{a}"))) (str.to_re ".bak/i\u{a}")))))
; information\s+User-Agent\u{3A}MM_RECO\u{2E}EXE
(assert (str.in_re X (re.++ (str.to_re "information") (re.+ (re.union (str.to_re " ") (str.to_re "\u{9}") (str.to_re "\u{a}") (str.to_re "\u{c}") (str.to_re "\u{d}"))) (str.to_re "User-Agent:MM_RECO.EXE\u{a}"))))
; Desktop.*Hello\u{2E}.*Referer\u{3A}Toolbar
(assert (str.in_re X (re.++ (str.to_re "Desktop") (re.* re.allchar) (str.to_re "Hello.") (re.* re.allchar) (str.to_re "Referer:Toolbar\u{a}"))))
(check-sat)
